	Costo	Nv	Tiempo
1	899,5	5	15,577
2	1316,48	10	28,688
3	1582,19	8	68,735
4	1968,77	12	157,97
5	2750,55	17	263,017
6	800,97	7	15,077
7	1243,19	13	29,11
8	1290,38	11	66,078
9	1763,33	17	143,531
10	2325,15	22	251,846
11	1911,19	7	119,624
12	1680,02	10	63,469
13	2569,17	13	92,593
14	1896,4	12	59,14
